NAME lp_typeD_4757
OBJSENSE MAX
ROWS
 N  OBJ
 L  c0      
 L  c1      
 L  c2      
 L  c3      
 G  c4      
 G  c5      
 G  c6      
 G  c7      
 L  c_key_upper
 G  c_key_lower
 G  _chain_constr_1
 G  _chain_constr_2
 G  _chain_constr_3
 G  _chain_constr_4
 G  _chain_constr_5
 G  _chain_cycle
COLUMNS
    x0        OBJ       1.4144350166345516e+00
    x0        c0        1.1914633052778334e+00
    x0        c1        8.9459172299415113e-01
    x0        c2        1.9051969002506473e+00
    x0        c3        5.7708366256521937e-01
    x0        c4        1.8959325181117
    x0        c5        1.3750102768159755e+00
    x0        c6        5.6517470715683316e-01
    x0        c7        7.4603583221343373e-01
    x0        c_key_upper  1.1844937852480113e+00
    x0        c_key_lower  1.1844937852480113e+00
    x1        OBJ       1.3735464988438086e+00
    x1        c0        0.581337224269249
    x1        c1        1.2008242079811451e+00
    x1        c2        1.8106274076642066e+00
    x1        c3        1.7297072875940120e+00
    x1        c4        5.7979033782807421e-01
    x1        c5        8.2295203442630782e-01
    x1        c6        1.1185923834720857e+00
    x1        c7        1.0479936994954033e+00
    x1        c_key_upper  1.4543997183900794e+00
    x1        c_key_lower  1.4543997183900794e+00
    x2        OBJ       1.4167910507149626e+00
    x2        c0        1.9917305535109686e+00
    x2        c1        1.26606683484111
    x2        c2        1.2210230198332259e+00
    x2        c3        1.1933750645602521e+00
    x2        c4        1.9382565201429489e+00
    x2        c5        6.3142944819750912e-01
    x2        c6        1.1373767171236742e+00
    x2        c7        0.583018467397658
    x2        c_key_upper  1.0545460956826305e+00
    x2        c_key_lower  1.0545460956826305e+00
    x3        OBJ       1.0740723972249222e+00
    x3        c0        5.6468258726736209e-01
    x3        c1        1.3068247694620609e+00
    x3        c2        8.8538509961610012e-01
    x3        c3        1.2401072315004418e+00
    x3        c4        1.8012110881344965e+00
    x3        c5        1.4484584549346227e+00
    x3        c6        0.543770072314951
    x3        c7        0.818018952061941
    x3        c_key_upper  1.7471182487630583e+00
    x3        c_key_lower  1.7471182487630583e+00
    x4        OBJ       1.4743177048769422e+00
    x4        c0        0.629622793899318
    x4        c1        1.2714103765235147e+00
    x4        c2        1.0459611832004643e+00
    x4        c3        1.8471794553534431e+00
    x4        c4        7.6265255448180236e-01
    x4        c5        1.7527883592496099e+00
    x4        c6        1.3159684307384798e+00
    x4        c7        1.2533742863046524e+00
    x4        c_key_upper  1.6413034009182352e+00
    x4        c_key_lower  1.6413034009182352e+00
    _chain_var_0  _chain_constr_1  -1
    _chain_var_0  _chain_cycle  1
    _chain_var_1  _chain_constr_1  1
    _chain_var_1  _chain_constr_2  -1
    _chain_var_2  _chain_constr_2  1
    _chain_var_2  _chain_constr_3  -1
    _chain_var_3  _chain_constr_3  1
    _chain_var_3  _chain_constr_4  -1
    _chain_var_4  _chain_constr_4  1
    _chain_var_4  _chain_constr_5  -1
    _chain_var_5  _chain_constr_5  1
    _chain_var_5  _chain_cycle  -1
RHS
    RHS1      c0        2.8452903436377753e+01
    RHS1      c1        3.2874182139791259e+01
    RHS1      c2        3.4860607053108509e+01
    RHS1      c3        2.8171931752426282e+01
    RHS1      c4        1.1256265318654041e+01
    RHS1      c5        7.4207989999518187e+00
    RHS1      c6        7.4651913898742057e+00
    RHS1      c7        6.3582718824688929e+00
    RHS1      c_key_upper  3.5409306245010072e+01
    RHS1      c_key_lower  1.7704653122505036e+01
    RHS1      _chain_constr_1  10
    RHS1      _chain_constr_2  10
    RHS1      _chain_constr_3  10
    RHS1      _chain_constr_4  10
    RHS1      _chain_constr_5  10
    RHS1      _chain_cycle  10
BOUNDS
 UP BND1      x0        10
 UP BND1      x1        10
 UP BND1      x2        10
 UP BND1      x3        10
 UP BND1      x4        10
 UP BND1      _chain_var_0  100
 UP BND1      _chain_var_1  100
 UP BND1      _chain_var_2  100
 UP BND1      _chain_var_3  100
 UP BND1      _chain_var_4  100
 UP BND1      _chain_var_5  100
ENDATA
